Optimal - objective value 35840.00000000
      0 F                  35840                       1
      2 m_29_30                1                       0
      4 m_28_30                1                       0
      6 m_27_30                1                       0
      8 m_26_30                1                       0
     10 m_25_30                1                       0
     12 m_24_30                1                       0
     14 m_23_30                1                       0
     16 m_22_30                1                       0
     18 m_21_30                1                       0
     20 m_20_30                1                       0
     22 m_19_30                1                       0
     24 m_18_30                1                       0
     26 m_17_30                1                       0
     28 m_16_30                1                       0
     30 m_15_30                1                       0
     32 m_14_30                1                       0
     34 m_13_30                1                       0
     36 m_12_30                1                       0
     38 m_11_30                1                       0
     40 m_10_30                1                       0
     42 m_9_30                 1                       0
     44 m_8_30                 1                       0
     46 m_7_30                 1                       0
     48 m_6_30                 1                       0
     50 m_5_30                 1                       0
     52 m_4_30                 1                       0
     54 m_3_30                 1                       0
     56 m_2_30                 1                       0
     58 m_1_30                 1                       0
     59 m_29_28                1                       0
     61 m_29_27                1                       0
     64 m_26_29                1                       0
     66 m_25_29                1                       0
     67 m_29_24                1                       0
     69 m_29_23                1                       0
     71 m_29_22                1                       0
     73 m_29_21                1                       0
     76 m_20_29                1                       0
     77 m_29_19                1                       0
     80 m_18_29                1                       0
     81 m_29_17                1                       0
     84 m_16_29                1                       0
     85 m_29_15                1                       0
     88 m_14_29                1                       0
     90 m_13_29                1                       0
     92 m_12_29                1                       0
     94 m_11_29                1                       0
     95 m_29_10                1                       0
     98 m_9_29                 1                       0
    100 m_8_29                 1                       0
    102 m_7_29                 1                       0
    104 m_6_29                 1                       0
    106 m_5_29                 1                       0
    108 m_4_29                 1                       0
    110 m_3_29                 1                       0
    111 m_29_2                 1                       0
    114 m_1_29                 1                       0
    115 m_28_27                1                       0
    118 m_26_28                1                       0
    120 m_25_28                1                       0
    121 m_28_24                1                       0
    123 m_28_23                1                       0
    125 m_28_22                1                       0
    127 m_28_21                1                       0
    130 m_20_28                1                       0
    131 m_28_19                1                       0
    134 m_18_28                1                       0
    135 m_28_17                1                       0
    138 m_16_28                1                       0
    139 m_28_15                1                       0
    142 m_14_28                1                       0
    144 m_13_28                1                       0
    146 m_12_28                1                       0
    148 m_11_28                1                       0
    149 m_28_10                1                       0
    152 m_9_28                 1                       0
    154 m_8_28                 1                       0
    156 m_7_28                 1                       0
    158 m_6_28                 1                       0
    160 m_5_28                 1                       0
    162 m_4_28                 1                       0
    164 m_3_28                 1                       0
    165 m_28_2                 1                       0
    168 m_1_28                 1                       0
    170 m_26_27                1                       0
    172 m_25_27                1                       0
    174 m_24_27                1                       0
    176 m_23_27                1                       0
    178 m_22_27                1                       0
    180 m_21_27                1                       0
    182 m_20_27                1                       0
    184 m_19_27                1                       0
    186 m_18_27                1                       0
    188 m_17_27                1                       0
    190 m_16_27                1                       0
    192 m_15_27                1                       0
    194 m_14_27                1                       0
    196 m_13_27                1                       0
    198 m_12_27                1                       0
    200 m_11_27                1                       0
    202 m_10_27                1                       0
    204 m_9_27                 1                       0
    206 m_8_27                 1                       0
    208 m_7_27                 1                       0
    210 m_6_27                 1                       0
    212 m_5_27                 1                       0
    214 m_4_27                 1                       0
    216 m_3_27                 1                       0
    218 m_2_27                 1                       0
    220 m_1_27                 1                       0
    222 m_25_26                1                       0
    223 m_26_24                1                       0
    225 m_26_23                1                       0
    227 m_26_22                1                       0
    229 m_26_21                1                       0
    232 m_20_26                1                       0
    233 m_26_19                1                       0
    236 m_18_26                1                       0
    237 m_26_17                1                       0
    240 m_16_26                1                       0
    241 m_26_15                1                       0
    244 m_14_26                1                       0
    246 m_13_26                1                       0
    248 m_12_26                1                       0
    250 m_11_26                1                       0
    251 m_26_10                1                       0
    254 m_9_26                 1                       0
    256 m_8_26                 1                       0
    258 m_7_26                 1                       0
    260 m_6_26                 1                       0
    262 m_5_26                 1                       0
    264 m_4_26                 1                       0
    266 m_3_26                 1                       0
    267 m_26_2                 1                       0
    270 m_1_26                 1                       0
    271 m_25_24                1                       0
    273 m_25_23                1                       0
    275 m_25_22                1                       0
    277 m_25_21                1                       0
    279 m_25_20                1                       0
    281 m_25_19                1                       0
    284 m_18_25                1                       0
    285 m_25_17                1                       0
    288 m_16_25                1                       0
    289 m_25_15                1                       0
    291 m_25_14                1                       0
    294 m_13_25                1                       0
    295 m_25_12                1                       0
    298 m_11_25                1                       0
    299 m_25_10                1                       0
    302 m_9_25                 1                       0
    304 m_8_25                 1                       0
    306 m_7_25                 1                       0
    308 m_6_25                 1                       0
    310 m_5_25                 1                       0
    312 m_4_25                 1                       0
    314 m_3_25                 1                       0
    315 m_25_2                 1                       0
    318 m_1_25                 1                       0
    319 m_24_23                1                       0
    322 m_22_24                1                       0
    324 m_21_24                1                       0
    326 m_20_24                1                       0
    328 m_19_24                1                       0
    330 m_18_24                1                       0
    332 m_17_24                1                       0
    334 m_16_24                1                       0
    336 m_15_24                1                       0
    338 m_14_24                1                       0
    340 m_13_24                1                       0
    342 m_12_24                1                       0
    344 m_11_24                1                       0
    346 m_10_24                1                       0
    348 m_9_24                 1                       0
    350 m_8_24                 1                       0
    352 m_7_24                 1                       0
    354 m_6_24                 1                       0
    356 m_5_24                 1                       0
    358 m_4_24                 1                       0
    360 m_3_24                 1                       0
    362 m_2_24                 1                       0
    364 m_1_24                 1                       0
    366 m_22_23                1                       0
    368 m_21_23                1                       0
    370 m_20_23                1                       0
    372 m_19_23                1                       0
    374 m_18_23                1                       0
    376 m_17_23                1                       0
    378 m_16_23                1                       0
    380 m_15_23                1                       0
    382 m_14_23                1                       0
    384 m_13_23                1                       0
    386 m_12_23                1                       0
    388 m_11_23                1                       0
    390 m_10_23                1                       0
    392 m_9_23                 1                       0
    394 m_8_23                 1                       0
    396 m_7_23                 1                       0
    398 m_6_23                 1                       0
    400 m_5_23                 1                       0
    402 m_4_23                 1                       0
    404 m_3_23                 1                       0
    406 m_2_23                 1                       0
    408 m_1_23                 1                       0
    410 m_21_22                1                       0
    412 m_20_22                1                       0
    414 m_19_22                1                       0
    416 m_18_22                1                       0
    418 m_17_22                1                       0
    420 m_16_22                1                       0
    422 m_15_22                1                       0
    424 m_14_22                1                       0
    426 m_13_22                1                       0
    428 m_12_22                1                       0
    430 m_11_22                1                       0
    432 m_10_22                1                       0
    434 m_9_22                 1                       0
    436 m_8_22                 1                       0
    438 m_7_22                 1                       0
    440 m_6_22                 1                       0
    442 m_5_22                 1                       0
    444 m_4_22                 1                       0
    446 m_3_22                 1                       0
    448 m_2_22                 1                       0
    450 m_1_22                 1                       0
    452 m_20_21                1                       0
    453 m_21_19                1                       0
    456 m_18_21                1                       0
    457 m_21_17                1                       0
    460 m_16_21                1                       0
    461 m_21_15                1                       0
    464 m_14_21                1                       0
    466 m_13_21                1                       0
    468 m_12_21                1                       0
    470 m_11_21                1                       0
    471 m_21_10                1                       0
    474 m_9_21                 1                       0
    476 m_8_21                 1                       0
    478 m_7_21                 1                       0
    480 m_6_21                 1                       0
    482 m_5_21                 1                       0
    484 m_4_21                 1                       0
    486 m_3_21                 1                       0
    487 m_21_2                 1                       0
    490 m_1_21                 1                       0
    491 m_20_19                1                       0
    494 m_18_20                1                       0
    495 m_20_17                1                       0
    498 m_16_20                1                       0
    499 m_20_15                1                       0
    502 m_14_20                1                       0
    504 m_13_20                1                       0
    506 m_12_20                1                       0
    508 m_11_20                1                       0
    509 m_20_10                1                       0
    512 m_9_20                 1                       0
    514 m_8_20                 1                       0
    516 m_7_20                 1                       0
    518 m_6_20                 1                       0
    520 m_5_20                 1                       0
    522 m_4_20                 1                       0
    524 m_3_20                 1                       0
    525 m_20_2                 1                       0
    528 m_1_20                 1                       0
    530 m_18_19                1                       0
    532 m_17_19                1                       0
    534 m_16_19                1                       0
    535 m_19_15                1                       0
    538 m_14_19                1                       0
    540 m_13_19                1                       0
    542 m_12_19                1                       0
    544 m_11_19                1                       0
    546 m_10_19                1                       0
    548 m_9_19                 1                       0
    550 m_8_19                 1                       0
    552 m_7_19                 1                       0
    554 m_6_19                 1                       0
    556 m_5_19                 1                       0
    558 m_4_19                 1                       0
    560 m_3_19                 1                       0
    562 m_2_19                 1                       0
    564 m_1_19                 1                       0
    565 m_18_17                1                       0
    568 m_16_18                1                       0
    569 m_18_15                1                       0
    571 m_18_14                1                       0
    574 m_13_18                1                       0
    575 m_18_12                1                       0
    577 m_18_11                1                       0
    579 m_18_10                1                       0
    582 m_9_18                 1                       0
    584 m_8_18                 1                       0
    585 m_18_7                 1                       0
    587 m_18_6                 1                       0
    589 m_18_5                 1                       0
    592 m_4_18                 1                       0
    593 m_18_3                 1                       0
    595 m_18_2                 1                       0
    598 m_1_18                 1                       0
    600 m_16_17                1                       0
    601 m_17_15                1                       0
    604 m_14_17                1                       0
    606 m_13_17                1                       0
    608 m_12_17                1                       0
    610 m_11_17                1                       0
    612 m_10_17                1                       0
    614 m_9_17                 1                       0
    616 m_8_17                 1                       0
    618 m_7_17                 1                       0
    620 m_6_17                 1                       0
    622 m_5_17                 1                       0
    624 m_4_17                 1                       0
    626 m_3_17                 1                       0
    628 m_2_17                 1                       0
    630 m_1_17                 1                       0
    631 m_16_15                1                       0
    633 m_16_14                1                       0
    636 m_13_16                1                       0
    637 m_16_12                1                       0
    639 m_16_11                1                       0
    641 m_16_10                1                       0
    644 m_9_16                 1                       0
    646 m_8_16                 1                       0
    647 m_16_7                 1                       0
    649 m_16_6                 1                       0
    651 m_16_5                 1                       0
    654 m_4_16                 1                       0
    655 m_16_3                 1                       0
    657 m_16_2                 1                       0
    660 m_1_16                 1                       0
    662 m_14_15                1                       0
    664 m_13_15                1                       0
    666 m_12_15                1                       0
    668 m_11_15                1                       0
    670 m_10_15                1                       0
    672 m_9_15                 1                       0
    674 m_8_15                 1                       0
    676 m_7_15                 1                       0
    678 m_6_15                 1                       0
    680 m_5_15                 1                       0
    682 m_4_15                 1                       0
    684 m_3_15                 1                       0
    686 m_2_15                 1                       0
    688 m_1_15                 1                       0
    690 m_13_14                1                       0
    691 m_14_12                1                       0
    694 m_11_14                1                       0
    695 m_14_10                1                       0
    698 m_9_14                 1                       0
    700 m_8_14                 1                       0
    702 m_7_14                 1                       0
    704 m_6_14                 1                       0
    706 m_5_14                 1                       0
    708 m_4_14                 1                       0
    710 m_3_14                 1                       0
    711 m_14_2                 1                       0
    714 m_1_14                 1                       0
    715 m_13_12                1                       0
    717 m_13_11                1                       0
    719 m_13_10                1                       0
    722 m_9_13                 1                       0
    723 m_13_8                 1                       0
    725 m_13_7                 1                       0
    727 m_13_6                 1                       0
    729 m_13_5                 1                       0
    732 m_4_13                 1                       0
    733 m_13_3                 1                       0
    735 m_13_2                 1                       0
    738 m_1_13                 1                       0
    740 m_11_12                1                       0
    741 m_12_10                1                       0
    744 m_9_12                 1                       0
    746 m_8_12                 1                       0
    748 m_7_12                 1                       0
    750 m_6_12                 1                       0
    752 m_5_12                 1                       0
    754 m_4_12                 1                       0
    756 m_3_12                 1                       0
    757 m_12_2                 1                       0
    760 m_1_12                 1                       0
    761 m_11_10                1                       0
    764 m_9_11                 1                       0
    766 m_8_11                 1                       0
    767 m_11_7                 1                       0
    769 m_11_6                 1                       0
    771 m_11_5                 1                       0
    774 m_4_11                 1                       0
    775 m_11_3                 1                       0
    777 m_11_2                 1                       0
    780 m_1_11                 1                       0
    782 m_9_10                 1                       0
    784 m_8_10                 1                       0
    786 m_7_10                 1                       0
    788 m_6_10                 1                       0
    790 m_5_10                 1                       0
    792 m_4_10                 1                       0
    794 m_3_10                 1                       0
    796 m_2_10                 1                       0
    798 m_1_10                 1                       0
    799 m_9_8                  1                       0
    801 m_9_7                  1                       0
    803 m_9_6                  1                       0
    805 m_9_5                  1                       0
    808 m_4_9                  1                       0
    809 m_9_3                  1                       0
    811 m_9_2                  1                       0
    814 m_1_9                  1                       0
    815 m_8_7                  1                       0
    817 m_8_6                  1                       0
    819 m_8_5                  1                       0
    822 m_4_8                  1                       0
    823 m_8_3                  1                       0
    825 m_8_2                  1                       0
    828 m_1_8                  1                       0
    829 m_7_6                  1                       0
    832 m_5_7                  1                       0
    834 m_4_7                  1                       0
    836 m_3_7                  1                       0
    837 m_7_2                  1                       0
    840 m_1_7                  1                       0
    842 m_5_6                  1                       0
    844 m_4_6                  1                       0
    846 m_3_6                  1                       0
    847 m_6_2                  1                       0
    850 m_1_6                  1                       0
    852 m_4_5                  1                       0
    854 m_3_5                  1                       0
    855 m_5_2                  1                       0
    858 m_1_5                  1                       0
    859 m_4_3                  1                       0
    861 m_4_2                  1                       0
    864 m_1_4                  1                       0
    865 m_3_2                  1                       0
    868 m_1_3                  1                       0
    870 m_1_2                  1                       0
    871 s_30                  30                       0
    872 m_30_30                1                       0
    873 s_29                  18                       0
    874 m_29_29                1                       0
    875 s_28                  19                       0
    876 m_28_28                1                       0
    877 s_27                  29                       0
    878 m_27_27                1                       0
    879 s_26                  17                       0
    880 m_26_26                1                       0
    881 s_25                  13                       0
    882 m_25_25                1                       0
    883 s_24                  27                       0
    884 m_24_24                1                       0
    885 s_23                  28                       0
    886 m_23_23                1                       0
    887 s_22                  26                       0
    888 m_22_22                1                       0
    889 s_21                  20                       0
    890 m_21_21                1                       0
    891 s_20                  16                       0
    892 m_20_20                1                       0
    893 s_19                  24                       0
    894 m_19_19                1                       0
    895 s_18                   7                       0
    896 m_18_18                1                       0
    897 s_17                  23                       0
    898 m_17_17                1                       0
    899 s_16                   6                       0
    900 m_16_16                1                       0
    901 s_15                  25                       0
    902 m_15_15                1                       0
    903 s_14                  14                       0
    904 m_14_14                1                       0
    905 s_13                   4                       0
    906 m_13_13                1                       0
    907 s_12                  15                       0
    908 m_12_12                1                       0
    909 s_11                   8                       0
    910 m_11_11                1                       0
    911 s_10                  22                       0
    912 m_10_10                1                       0
    913 s_9                    3                       0
    914 m_9_9                  1                       0
    915 s_8                    5                       0
    916 m_8_8                  1                       0
    917 s_7                   11                       0
    918 m_7_7                  1                       0
    919 s_6                   12                       0
    920 m_6_6                  1                       0
    921 s_5                   10                       0
    922 m_5_5                  1                       0
    923 s_4                    2                       0
    924 m_4_4                  1                       0
    925 s_3                    9                       0
    926 m_3_3                  1                       0
    927 s_2                   21                       0
    928 m_2_2                  1                       0
    929 s_1                    1                       0
    930 m_1_1                  1                       0
    931 y_30_30                1                       0
    941 y_20_30                1                       0
    946 y_15_30                1                       0
    962 y_29_29                1                       0
    965 y_26_29                1                       0
    971 y_20_29                1                       0
    977 y_14_29                1                       0
    979 y_12_29                1                       0
    980 y_11_29                1                       0
    993 y_28_28                1                       0
    995 y_26_28                1                       0
   1001 y_20_28                1                       0
   1009 y_12_28                1                       0
   1010 y_11_28                1                       0
   1024 y_27_27                1                       0
   1028 y_23_27                1                       0
   1030 y_21_27                1                       0
   1031 y_20_27                1                       0
   1036 y_15_27                1                       0
   1055 y_26_26                1                       0
   1061 y_20_26                1                       0
   1067 y_14_26                1                       0
   1069 y_12_26                1                       0
   1070 y_11_26                1                       0
   1086 y_25_25                1                       0
   1100 y_11_25                1                       0
   1106 y_5_25                 1                       0
   1107 y_4_25                 1                       0
   1110 y_1_25                 1                       0
   1117 y_24_24                1                       0
   1120 y_21_24                1                       0
   1121 y_20_24                1                       0
   1122 y_19_24                1                       0
   1126 y_15_24                1                       0
   1131 y_10_24                1                       0
   1148 y_23_23                1                       0
   1150 y_21_23                1                       0
   1151 y_20_23                1                       0
   1156 y_15_23                1                       0
   1161 y_10_23                1                       0
   1179 y_22_22                1                       0
   1180 y_21_22                1                       0
   1181 y_20_22                1                       0
   1182 y_19_22                1                       0
   1186 y_15_22                1                       0
   1191 y_10_22                1                       0
   1210 y_21_21                1                       0
   1211 y_20_21                1                       0
   1219 y_12_21                1                       0
   1220 y_11_21                1                       0
   1241 y_20_20                1                       0
   1247 y_14_20                1                       0
   1249 y_12_20                1                       0
   1250 y_11_20                1                       0
   1270 y_21_19                1                       0
   1271 y_20_19                1                       0
   1272 y_19_19                1                       0
   1280 y_11_19                1                       0
   1281 y_10_19                1                       0
   1289 y_2_19                 1                       0
   1303 y_18_18                1                       0
   1305 y_16_18                1                       0
   1313 y_8_18                 1                       0
   1317 y_4_18                 1                       0
   1320 y_1_18                 1                       0
   1330 y_21_17                1                       0
   1331 y_20_17                1                       0
   1334 y_17_17                1                       0
   1340 y_11_17                1                       0
   1341 y_10_17                1                       0
   1349 y_2_17                 1                       0
   1365 y_16_16                1                       0
   1373 y_8_16                 1                       0
   1377 y_4_16                 1                       0
   1380 y_1_16                 1                       0
   1390 y_21_15                1                       0
   1391 y_20_15                1                       0
   1392 y_19_15                1                       0
   1396 y_15_15                1                       0
   1400 y_11_15                1                       0
   1401 y_10_15                1                       0
   1427 y_14_14                1                       0
   1430 y_11_14                1                       0
   1437 y_4_14                 1                       0
   1440 y_1_14                 1                       0
   1458 y_13_13                1                       0
   1467 y_4_13                 1                       0
   1470 y_1_13                 1                       0
   1487 y_14_12                1                       0
   1489 y_12_12                1                       0
   1490 y_11_12                1                       0
   1497 y_4_12                 1                       0
   1500 y_1_12                 1                       0
   1520 y_11_11                1                       0
   1527 y_4_11                 1                       0
   1530 y_1_11                 1                       0
   1540 y_21_10                1                       0
   1541 y_20_10                1                       0
   1550 y_11_10                1                       0
   1551 y_10_10                1                       0
   1559 y_2_10                 1                       0
   1582 y_9_9                  1                       0
   1587 y_4_9                  1                       0
   1590 y_1_9                  1                       0
   1613 y_8_8                  1                       0
   1617 y_4_8                  1                       0
   1620 y_1_8                  1                       0
   1640 y_11_7                 1                       0
   1644 y_7_7                  1                       0
   1646 y_5_7                  1                       0
   1647 y_4_7                  1                       0
   1648 y_3_7                  1                       0
   1650 y_1_7                  1                       0
   1670 y_11_6                 1                       0
   1675 y_6_6                  1                       0
   1676 y_5_6                  1                       0
   1677 y_4_6                  1                       0
   1678 y_3_6                  1                       0
   1680 y_1_6                  1                       0
   1700 y_11_5                 1                       0
   1706 y_5_5                  1                       0
   1707 y_4_5                  1                       0
   1708 y_3_5                  1                       0
   1710 y_1_5                  1                       0
   1737 y_4_4                  1                       0
   1740 y_1_4                  1                       0
   1760 y_11_3                 1                       0
   1767 y_4_3                  1                       0
   1768 y_3_3                  1                       0
   1770 y_1_3                  1                       0
   1780 y_21_2                 1                       0
   1781 y_20_2                 1                       0
   1790 y_11_2                 1                       0
   1799 y_2_2                  1                       0
   1830 y_1_1                  1                       0
